p edge 5775 23
e 361 1814
e 709 1709
e 795 5687
e 1103 1579
e 1331 2227
e 1331 2653
e 1331 4033
e 1331 4245
e 1331 4618
e 2227 2653
e 2227 4033
e 2227 4245
e 2227 4618
e 2295 5687
e 2549 5335
e 2653 4033
e 2653 4245
e 2653 4618
e 2845 5775
e 4033 4245
e 4033 4618
e 4245 4618
e 4667 4860
